
Gurobi 9.1.0 (win64) logging started Tue Dec 15 14:47:36 2020

Changed value of parameter LogFile to logs/iteration6
   Prev:   Default: 
Gurobi Optimizer version 9.1.0 build v9.1.0rc0 (win64)
Thread count: 4 physical cores, 8 logical processors, using up to 8 threads
Optimize a model with 136 rows, 386 columns and 1355 nonzeros
Model fingerprint: 0xd407d431
Coefficient statistics:
  Matrix range     [1e+00, 1e+00]
  Objective range  [1e+03, 3e+03]
  Bounds range     [0e+00, 0e+00]
  RHS range        [1e+00, 1e+00]
Presolve removed 27 rows and 31 columns
Presolve time: 0.00s
Presolved: 109 rows, 355 columns, 1324 nonzeros

Iteration    Objective       Primal Inf.    Dual Inf.      Time
       0    4.1070333e+04   1.090000e+02   0.000000e+00      0s
     155    1.0584092e+05   0.000000e+00   0.000000e+00      0s

Solved in 155 iterations and 0.00 seconds
Optimal objective  1.058409167e+05

Solutionx[24] 1.000000 
x[54] 1.000000 
x[55] 1.000000 
x[60] 1.000000 
x[64] 1.000000 
x[70] 1.000000 
x[72] 1.000000 
x[74] 1.000000 
x[75] 1.000000 
x[76] 1.000000 
x[77] 1.000000 
x[78] 1.000000 
x[82] 1.000000 
x[83] 1.000000 
x[99] 1.000000 
x[102] 1.000000 
x[104] 1.000000 
x[107] 1.000000 
x[118] 1.000000 
x[121] 1.000000 
x[122] 1.000000 
x[124] 1.000000 
x[127] 1.000000 
x[128] 1.000000 
x[129] 1.000000 
x[130] 1.000000 
x[131] 1.000000 
x[132] 1.000000 
x[133] 1.000000 
x[134] 1.000000 
x[135] 1.000000 
x[273] 0.333333 
x[436] 0.500000 
x[552] 0.333333 
x[595] 0.500000 
x[728] 0.500000 
x[731] 0.666667 
x[810] 0.666667 
x[819] 0.500000 
x[846] 0.500000 
x[906] 0.166667 
x[1733] 0.333333 
x[1739] 0.500000 
x[1772] 0.333333 
x[2222] 0.333333 
x[2456] 0.166667 
x[2864] 0.333333 
x[3183] 0.333333 
x[4760] 0.500000 
x[5967] 0.500000 
x[7883] 0.500000 
x[10635] 0.500000 
x[19863] 0.500000 
x[29183] 0.500000 
x[8781] 0.500000 
x[9909] 0.500000 
x[9171] 1.000000 
x[10828] 0.666667 
x[6722] 0.166667 
x[13600] 0.166667 
x[13128] 1.000000 
x[8364] 1.000000 
x[30408] 1.000000 
x[9629] 0.166667 
x[16501] 0.333333 
x[29497] 0.500000 
x[14304] 1.000000 
x[10912] 1.000000 
x[21081] 0.500000 
x[32577] 0.500000 
x[12011] 1.000000 
x[16091] 0.666667 
x[19396] 0.333333 
x[3447] 1.000000 
x[26433] 0.500000 
x[30770] 0.500000 
x[14619] 0.500000 
x[8273] 0.500000 
x[5984] 1.000000 
x[6136] 1.000000 
